objective value:                 0.000852326916000367
x_1_2                                               1 	(obj:0)
x_2_1                                               1 	(obj:0)
x_3_2                                               1 	(obj:0)
x_4_3                                               1 	(obj:0)
x_5_3                                               1 	(obj:0)
x_6_1                                               1 	(obj:0)
x_7_1                                               1 	(obj:0)
x_8_2                                               1 	(obj:0)
x_9_3                                               1 	(obj:0)
x_10_3                                              1 	(obj:0)
x_11_2                                              1 	(obj:0)
x_12_2                                              1 	(obj:0)
x_13_1                                              1 	(obj:0)
x_14_1                                              1 	(obj:0)
x_15_3                                              1 	(obj:0)
x_16_2                                              1 	(obj:0)
x_17_1                                              1 	(obj:0)
x_18_1                                              1 	(obj:0)
x_19_2                                              1 	(obj:0)
x_20_2                                              1 	(obj:0)
ind_1                                               1 	(obj:0)
abs_1_2                                             1 	(obj:0)
ind_2                                               1 	(obj:0)
abs_2_3                                             1 	(obj:0)
ind_3                                               1 	(obj:0)
abs_3_1                                             1 	(obj:0)
epsI                             0.000852326916000367 	(obj:1)
prodt_x_19_2_t_x_20_2_coh_2                         1 	(obj:0)
prodt_x_1_2_t_x_2_1_more_coh_1           0.1298949721 	(obj:0)
prodt_x_2_1_t_x_3_1_more_coh_1           5.9072376979 	(obj:0)
prodt_x_6_1_t_x_7_1_more_coh_1            4.671448069 	(obj:0)
prodt_x_7_1_t_x_9_1_more_coh_1       3.76891480059999 	(obj:0)
prodt_x_13_1_t_x_15_1_more_coh_1         3.5730511227 	(obj:0)
prodt_x_14_1_t_x_15_1_more_coh_1    0.762478973100001 	(obj:0)
prodt_x_17_1_t_x_18_1_more_coh_1         1.1813265914 	(obj:0)
prodt_x_1_2_t_x_2_2_more_coh_2           3.8565476857 	(obj:0)
prodt_x_3_2_t_x_4_2_more_coh_2           3.1619650479 	(obj:0)
prodt_x_8_2_t_x_11_2_more_coh_2          3.4084422363 	(obj:0)
prodt_x_11_2_t_x_12_2_more_coh_2         2.4071855388 	(obj:0)
prodt_x_12_2_t_x_13_2_more_coh_2         2.5042085956 	(obj:0)
prodt_x_16_2_t_x_17_2_more_coh_2         1.0682421794 	(obj:0)
prodt_x_4_3_t_x_5_3_more_coh_3           2.9455908563 	(obj:0)
prodt_x_5_3_t_x_6_3_more_coh_3           2.6691025086 	(obj:0)
prodt_x_9_3_t_x_14_3_more_coh_3           2.279046121 	(obj:0)
prodt_x_10_3_t_x_11_3_more_coh_3         1.8514498448 	(obj:0)
prodt_x_1_2_t_x_2_2_more_irrev1_2_1     2.65938459241268 	(obj:0)
prodt_x_2_1_t_x_4_2_more_irrev1_2_1     0.50400164643411 	(obj:0)
prodt_x_3_2_t_x_4_1_more_irrev1_2_1     3.53664048315664 	(obj:0)
prodt_x_6_1_t_x_7_2_more_irrev1_2_1     3.73023449450908 	(obj:0)
prodt_x_7_1_t_x_8_2_more_irrev1_2_1    0.363182739999999 	(obj:0)
prodt_x_8_2_t_x_9_1_more_irrev1_2_1     1.34271561399694 	(obj:0)
prodt_x_11_2_t_x_13_1_more_irrev1_2_1     2.84002192393773 	(obj:0)
prodt_x_12_2_t_x_13_1_more_irrev1_2_1    0.311895789999999 	(obj:0)
prodt_x_13_1_t_x_14_2_more_irrev1_2_1    0.866453099972023 	(obj:0)
prodt_x_14_1_t_x_16_2_more_irrev1_2_1     2.18487601882527 	(obj:0)
prodt_x_16_2_t_x_19_1_more_irrev1_2_1    0.586243146789428 	(obj:0)
prodt_x_17_1_t_x_20_2_more_irrev1_2_1    0.142646784786604 	(obj:0)
prodt_x_18_1_t_x_19_2_more_irrev1_2_1     1.74487207270173 	(obj:0)
prodt_x_1_2_t_x_2_2_more_irrev2_2_1    -2.65938459241268 	(obj:0)
prodt_x_2_1_t_x_4_2_more_irrev2_2_1    -0.50400164643411 	(obj:0)
prodt_x_3_2_t_x_4_1_more_irrev2_2_1    -3.53664048315664 	(obj:0)
prodt_x_6_1_t_x_7_2_more_irrev2_2_1    -3.73023449450908 	(obj:0)
prodt_x_7_1_t_x_8_2_more_irrev2_2_1          -0.36318274 	(obj:0)
prodt_x_8_2_t_x_9_1_more_irrev2_2_1    -1.34271561399694 	(obj:0)
prodt_x_11_2_t_x_13_1_more_irrev2_2_1    -2.84002192393773 	(obj:0)
prodt_x_12_2_t_x_13_1_more_irrev2_2_1   -0.311895789999999 	(obj:0)
prodt_x_13_1_t_x_14_2_more_irrev2_2_1   -0.866453099972022 	(obj:0)
prodt_x_14_1_t_x_16_2_more_irrev2_2_1    -2.18487601882527 	(obj:0)
prodt_x_16_2_t_x_19_1_more_irrev2_2_1   -0.586243146789428 	(obj:0)
prodt_x_17_1_t_x_20_2_more_irrev2_2_1   -0.142646784786604 	(obj:0)
prodt_x_18_1_t_x_19_2_more_irrev2_2_1     1.74487207270173 	(obj:0)
prodt_x_1_2_t_x_2_3_more_irrev1_3_1    -2.65720080961092 	(obj:0)
prodt_x_2_1_t_x_4_3_more_irrev1_3_1    -2.31198019931563 	(obj:0)
prodt_x_4_3_t_x_7_1_more_irrev1_3_1    -2.22434423999999 	(obj:0)
prodt_x_5_3_t_x_7_1_more_irrev1_3_1   -0.665530561968971 	(obj:0)
prodt_x_6_1_t_x_7_3_more_irrev1_3_1     -1.0715029866777 	(obj:0)
prodt_x_7_1_t_x_8_3_more_irrev1_3_1    -1.57897411000002 	(obj:0)
prodt_x_9_3_t_x_11_1_more_irrev1_3_1    -0.77574824535209 	(obj:0)
prodt_x_10_3_t_x_12_1_more_irrev1_3_1    -2.43844917626287 	(obj:0)
prodt_x_13_1_t_x_14_3_more_irrev1_3_1                   -1 	(obj:0)
prodt_x_14_1_t_x_16_3_more_irrev1_3_1   -0.038797005493528 	(obj:0)
prodt_x_15_3_t_x_16_1_more_irrev1_3_1    -1.42977163942505 	(obj:0)
prodt_x_1_2_t_x_2_3_more_irrev2_3_1     2.65720080961092 	(obj:0)
prodt_x_2_1_t_x_4_3_more_irrev2_3_1     2.31198019931563 	(obj:0)
prodt_x_4_3_t_x_7_1_more_irrev2_3_1     2.22434423999999 	(obj:0)
prodt_x_5_3_t_x_7_1_more_irrev2_3_1    0.665530561968971 	(obj:0)
prodt_x_6_1_t_x_7_3_more_irrev2_3_1      1.0715029866777 	(obj:0)
prodt_x_7_1_t_x_8_3_more_irrev2_3_1     1.57897411000002 	(obj:0)
prodt_x_9_3_t_x_11_1_more_irrev2_3_1    0.775748245352091 	(obj:0)
prodt_x_10_3_t_x_12_1_more_irrev2_3_1     2.43844917626287 	(obj:0)
prodt_x_13_1_t_x_14_3_more_irrev2_3_1                    1 	(obj:0)
prodt_x_14_1_t_x_16_3_more_irrev2_3_1    0.038797005493528 	(obj:0)
prodt_x_15_3_t_x_16_1_more_irrev2_3_1     1.42977163942505 	(obj:0)
prodt_x_1_2_t_x_2_3_more_irrev1_3_2     2.65720080961092 	(obj:0)
prodt_x_3_2_t_x_4_3_more_irrev1_3_2    0.324635442421502 	(obj:0)
prodt_x_4_3_t_x_7_2_more_irrev1_3_2           1.11970533 	(obj:0)
prodt_x_5_3_t_x_7_2_more_irrev1_3_2       2.900828980134 	(obj:0)
prodt_x_8_2_t_x_9_3_more_irrev1_3_2      1.7488334173396 	(obj:0)
prodt_x_9_3_t_x_11_2_more_irrev1_3_2      2.8016260683304 	(obj:0)
prodt_x_10_3_t_x_12_2_more_irrev1_3_2    0.788635072322892 	(obj:0)
prodt_x_11_2_t_x_13_3_more_irrev1_3_2    0.183245304002709 	(obj:0)
prodt_x_12_2_t_x_14_3_more_irrev1_3_2    0.745301109999997 	(obj:0)
prodt_x_15_3_t_x_16_2_more_irrev1_3_2     1.66125729928809 	(obj:0)
prodt_x_1_2_t_x_2_3_more_irrev2_3_2    -2.65720080961092 	(obj:0)
prodt_x_3_2_t_x_4_3_more_irrev2_3_2   -0.324635442421501 	(obj:0)
prodt_x_4_3_t_x_7_2_more_irrev2_3_2    -1.11970533000001 	(obj:0)
prodt_x_5_3_t_x_7_2_more_irrev2_3_2      -2.900828980134 	(obj:0)
prodt_x_8_2_t_x_9_3_more_irrev2_3_2     -1.7488334173396 	(obj:0)
prodt_x_9_3_t_x_11_2_more_irrev2_3_2     -2.8016260683304 	(obj:0)
prodt_x_10_3_t_x_12_2_more_irrev2_3_2   -0.788635072322892 	(obj:0)
prodt_x_11_2_t_x_13_3_more_irrev2_3_2   -0.183245304002709 	(obj:0)
prodt_x_12_2_t_x_14_3_more_irrev2_3_2   -0.745301109999997 	(obj:0)
prodt_x_15_3_t_x_16_2_more_irrev2_3_2    -1.66125729928809 	(obj:0)
SCIP Status        : solving was interrupted [time limit reached]
Total Time         :    3600.00
  solving          :    3600.00
  presolving       :       0.06 (included in solving)
  reading          :       0.00
  copying          :       1.58 (141 #copies) (minimal 0.00, maximal 0.03, average 0.01)
Original Problem   :
  Problem name     : ../instances/Pot4/Pot4_T_20B_alpha=2.txt.spa
  Variables        : 101 (100 binary, 0 integer, 0 implicit integer, 1 continuous)
  Constraints      : 193 initial, 193 maximal
  Objective sense  : maximize
Presolved Problem  :
  Problem name     : t_../instances/Pot4/Pot4_T_20B_alpha=2.txt.spa
  Variables        : 590 (92 binary, 0 integer, 16 implicit integer, 482 continuous)
  Constraints      : 2015 initial, 8453 maximal
Presolvers         :   ExecTime  SetupTime  Calls  FixedVars   AggrVars   ChgTypes  ChgBounds   AddHoles    DelCons    AddCons   ChgSides   ChgCoefs
  boundshift       :       0.00       0.00      0          0          0          0          0          0          0          0          0          0
  components       :       0.00       0.00      1          0          0          0          0          0          0          0          0          0
  convertinttobin  :       0.00       0.00      0          0          0          0          0          0          0          0          0          0
  domcol           :       0.00       0.00      1          0          0          0          0          0          0          0          0          0
  dualagg          :       0.00       0.00      0          0          0          0          0          0          0          0          0          0
  dualinfer        :       0.00       0.00      0          0          0          0          0          0          0          0          0          0
  gateextraction   :       0.00       0.00      3          0          0          0          0          0        108         34          0          0
  implfree         :       0.00       0.00      0          0          0          0          0          0          0          0          0          0
  implics          :       0.00       0.00      4          0          0          0          0          0          0          0          0          0
  inttobinary      :       0.00       0.00      0          0          0          0          0          0          0          0          0          0
  redvub           :       0.00       0.00      0          0          0          0          0          0          0          0          0          0
  stuffing         :       0.00       0.00      1          0          0          0          0          0          0          0          0          0
  trivial          :       0.00       0.00      7          0          0          0          0          0          0          0          0          0
  tworowbnd        :       0.00       0.00      0          0          0          0          0          0          0          0          0          0
  dualfix          :       0.00       0.00      7          4          0          0          0          0          0          0          0          0
  genvbounds       :       0.00       0.00      0          0          0          0          0          0          0          0          0          0
  probing          :       0.03       0.00      1          0          0          0          4          0          0          0          0          0
  pseudoobj        :       0.00       0.00      0          0          0          0          0          0          0          0          0          0
  varbound         :       0.00       0.00      9          0          0          0          0          0         28         28          0          0
  setppc           :       0.01       0.00     12          0          0          0          0          0          0          0          0          0
  and              :       0.00       0.00      4          0         12          0          0          0         12          0          0          0
  linear           :       0.00       0.00      9          3          1          0          4          0          7          0         12         12
  logicor          :       0.00       0.00      7          0          0          0          0          0          0          0          0          0
  bounddisjunction :       0.00       0.00      0          0          0          0          0          0          0          0          0          0
  quadratic        :       0.02       0.00      2          0          0          0          0          0          0       1915          0          0
  root node        :          -          -      -          1          -          -         82          -          -          -          -          -
Constraints        :     Number  MaxNumber  #Separate #Propagate    #EnfoLP    #EnfoPS     #Check   #ResProp    Cutoffs    DomReds       Cuts    Applied      Conss   Children
  integral         :          0          0          0          0    2001929          0     440195          0          0      53950          0          0        213    3973784
  varbound         :        869        869         88   11820339      10742          0     152075    3698017      70472   81589734          3          3          0          0
  setppc           :        110+       194         88   11748975      10739          0       2014    2176175      13580    5128060          8          0          0          0
  and              :         22         22       1838      19521          0          0       1355     324288          1       1754         37         11          0          0
  linear           :        979        979         88   11736286       6425          0       1320    1824824     195256  115128398     307504     307286          0          0
  logicor          :         35+      1439         86    3140147          0          0          0      92793       2422     136234          3          2          0          0
  bounddisjunction :          0+      5010          0    5235286          0          0          0     549341       4003    6653900          0          0          0          0
  countsols        :          0          0          0          0          1          0     288118          0          0          0          0          0          0          0
Constraint Timings :  TotalTime  SetupTime   Separate  Propagate     EnfoLP     EnfoPS      Check    ResProp    SB-Prop
  integral         :      19.96       0.00       0.00       0.00      19.91       0.00       0.05       0.00       0.00
  varbound         :      69.09       0.00       0.01      67.43       0.09       0.00       0.83       0.58       0.15
  setppc           :      40.40       0.00       0.00      39.70       0.03       0.00       0.02       0.56       0.09
  and              :       0.14       0.00       0.00       0.01       0.00       0.00       0.00       0.13       0.00
  linear           :     192.62       0.00       0.01     190.56       0.26       0.00       0.00       1.32       0.47
  logicor          :      26.84       0.00       0.00      26.79       0.00       0.00       0.00       0.04       0.01
  bounddisjunction :     135.18       0.00       0.00     134.98       0.00       0.00       0.00       0.14       0.06
  countsols        :       0.01       0.00       0.00       0.00       0.00       0.00       0.01       0.00       0.00
Propagators        : #Propagate   #ResProp    Cutoffs    DomReds
  dualfix          :          2          0          0          0
  genvbounds       :          0          0          0          0
  obbt             :          0          0          0          0
  probing          :          0          0          0          0
  pseudoobj        :   12846031          0       3564         80
  redcost          :    4419647          0        180     627196
  rootredcost      :          3          0          0          1
  vbounds          :   13821854      10812          0        247
Propagator Timings :  TotalTime  SetupTime   Presolve  Propagate    ResProp    SB-Prop
  dualfix          :       0.00       0.00       0.00       0.00       0.00       0.00
  genvbounds       :       1.93       0.00       0.00       1.93       0.00       0.00
  obbt             :       0.00       0.00       0.00       0.00       0.00       0.00
  probing          :       0.03       0.00       0.03       0.00       0.00       0.00
  pseudoobj        :       4.80       0.00       0.00       4.80       0.00       0.00
  redcost          :      22.71       0.00       0.00      22.71       0.00       0.00
  rootredcost      :       2.39       0.00       0.00       2.39       0.00       0.00
  vbounds          :       5.16       0.00       0.00       5.16       0.00       0.00
Conflict Analysis  :       Time      Calls    Success    DomReds  Conflicts   Literals    Reconvs ReconvLits   LP Iters
  propagation      :       4.47      97088      96777          -     924301       34.3       5443       44.7          -
  infeasible LP    :      13.71      84269      80145          -    1260517       37.1         84       13.4          0
  bound exceed. LP :       0.00          0          0          -          0        0.0          0        0.0          0
  strong branching :       0.00          0          0          -          0        0.0          0        0.0          0
  pseudo solution  :       0.00          0          0          -          0        0.0          0        0.0          -
  applied globally :       4.42          -          -          0     327059       19.5          -          -          -
  applied locally  :          -          -          -          0       2504       33.1          -          -          -
Separators         :   ExecTime  SetupTime      Calls    Cutoffs    DomReds       Cuts    Applied      Conss
  cut pool         :       0.00                    87          -          -       1106          -          -    (maximal pool size: 769)
  cgmip            :       0.00       0.00          0          0          0          0          0          0
  clique           :       0.00       0.00         88          0          0         33         32          0
  closecuts        :       0.00       0.00          0          0          0          0          0          0
  cmir             :       0.02       0.00         10          0          0        151         96          0
  disjunctive      :       0.00       0.00          0          0          0          0          0          0
  eccuts           :       0.00       0.00          0          0          0          0          0          0
  flowcover        :       0.16       0.00         15          0          0        332         44          0
  gomory           :       0.01       0.00         10          0          0          3          3          0
  impliedbounds    :       0.01       0.00         88          0          0        699        155          0
  intobj           :       0.00       0.00          0          0          0          0          0          0
  mcf              :       0.00       0.00          1          0          0          0          0          0
  oddcycle         :       0.00       0.00          0          0          0          0          0          0
  rapidlearning    :       0.00       0.00          0          0          0          0          0          0
  strongcg         :       0.06       0.00         20          0          0          7          4          0
  zerohalf         :       0.00       0.00          0          0          0          0          0          0
Pricers            :   ExecTime  SetupTime      Calls       Vars
  problem variables:       0.00          -          0          0
Branching Rules    :   ExecTime  SetupTime   BranchLP  BranchExt   BranchPS    Cutoffs    DomReds       Cuts      Conss   Children
  allfullstrong    :       0.00       0.00          0          0          0          0          0          0          0          0
  cloud            :       0.00       0.00          0          0          0          0          0          0          0          0
  distribution     :       0.00       0.00          0          0          0          0          0          0          0          0
  fullstrong       :       0.00       0.00          0          0          0          0          0          0          0          0
  inference        :       0.00       0.00          0          0          0          0          0          0          0          0
  leastinf         :       0.00       0.00          0          0          0          0          0          0          0          0
  mostinf          :       0.00       0.00          0          0          0          0          0          0          0          0
  multaggr         :       0.00       0.00          0          0          0          0          0          0          0          0
  nodereopt        :       0.00       0.00          0          0          0          0          0          0          0          0
  pscost           :       0.00       0.00          0          0          0          0          0          0          0          0
  random           :       0.00       0.00          0          0          0          0          0          0          0          0
  relpscost        :      19.12       0.00    1991187          0          0          0      53950          0       -455    3973784
Primal Heuristics  :   ExecTime  SetupTime      Calls      Found       Best
  LP solutions     :       0.00          -          -          1          -
  pseudo solutions :       0.00          -          -          0          -
  strong branching :       0.01          -          -          0          -
  SpaGreedy        :     324.04       0.00     288116          2          1
  actconsdiving    :       0.00       0.00          0          0          0
  bound            :       0.00       0.00          0          0          0
  clique           :       0.00       0.00          0          0          0
  coefdiving       :      22.19       0.00       6902          0          0
  crossover        :       0.86       0.00          0          0          0
  dins             :       0.00       0.00          0          0          0
  distributiondivin:      48.34       0.00       6901          0          0
  dualval          :       0.00       0.00          0          0          0
  feaspump         :      19.70       0.00       1974          0          0
  fixandinfer      :       0.00       0.00          0          0          0
  fracdiving       :      23.01       0.00       6901          0          0
  guideddiving     :      22.61       0.00       6902          0          0
  indicator        :       0.40       0.00          0          0          0
  intdiving        :       0.00       0.00          0          0          0
  intshifting      :       0.29       0.00        119          0          0
  linesearchdiving :      21.72       0.00       6902          0          0
  localbranching   :       0.00       0.00          0          0          0
  mutation         :       0.00       0.00          0          0          0
  nlpdiving        :       0.11       0.00          0          0          0
  objpscostdiving  :      19.91       0.00       2790          0          0
  octane           :       0.00       0.00          0          0          0
  ofins            :       0.00       0.00          0          0          0
  oneopt           :       0.57       0.00          2          0          0
  proximity        :       0.00       0.00          0          0          0
  pscostdiving     :      23.08       0.00       6902          0          0
  randrounding     :       1.89       0.00     151095          0          0
  rens             :       0.00       0.00          0          0          0
  reoptsols        :       0.00       0.00          0          0          0
  rins             :       8.37       0.00        126          1          1
  rootsoldiving    :      20.31       0.00       3451          0          0
  rounding         :       0.86       0.00      19794          0          0
  shiftandpropagate:       0.00       0.00          0          0          0
  shifting         :       1.59       0.00       5560          0          0
  simplerounding   :       0.38       0.00          0          0          0
  subnlp           :       0.51       0.00          0          0          0
  trivial          :       0.00       0.00          2          0          0
  trivialnegation  :       0.00       0.00          0          0          0
  trysol           :       0.63       0.00          0          0          0
  twoopt           :       0.00       0.00          0          0          0
  undercover       :       0.00       0.00          1          0          0
  vbounds          :       0.00       0.00          0          0          0
  veclendiving     :      23.74       0.00       6902          0          0
  zeroobj          :       0.00       0.00          0          0          0
  zirounding       :       0.57       0.00       1000          0          0
  other solutions  :          -          -          -          0          -
Diving Statistics  :      Calls      Nodes   LP Iters Backtracks   MinDepth   MaxDepth   AvgDepth  NLeafSols  MinSolDpt  MaxSolDpt  AvgSolDpt
  actconsdiving    :          0          -          -          -          -          -          -          -          -          -          -
  coefdiving       :       6902      50814     504643       9480         17         43       27.1          -          -          -          -
  distributiondivin:       6901      47084     571584       9512         18         37       26.3          -          -          -          -
  fracdiving       :       6901      51768     583756      10981         18         50       26.9          -          -          -          -
  guideddiving     :       6902      56401     597219      10128         19         48       28.2          -          -          -          -
  linesearchdiving :       6902      44954     527010      10691         17         39       26.1          -          -          -          -
  pscostdiving     :       6902      57761     557472       8802         18         50       28.1          -          -          -          -
  veclendiving     :       6902      49813     504845      12930         19         36       26.4          -          -          -          -
LP                 :       Time      Calls Iterations  Iter/call   Iter/sec  Time-0-It Calls-0-It
  primal LP        :       0.00         14          0       0.00          -       0.00         14
  dual LP          :    1506.09    4162750   62772749      17.63   41679.28      60.20     601848
  lex dual LP      :       0.00          0          0       0.00          -
  barrier LP       :       0.00          0          0       0.00          -       0.00          0
  diving/probing LP:     139.45     226281    5781704      25.55   41460.77
  strong branching :       5.98       5850     189337      32.37   31661.71
    (at root node) :          -         27       1780      65.93          -
  conflict analysis:       0.00          0          0       0.00          -
B&B Tree           :
  number of runs   :          1
  nodes            :    3850985 (1986892 internal, 1864093 leaves)
  nodes (total)    :    3850985 (1986892 internal, 1864093 leaves)
  nodes left       :     114685
  max depth        :         36
  max depth (total):         36
  backtracks       :     940183 (24.4%)
  delayed cutoffs  :       8074
  repropagations   :     140167 (2871846 domain reductions, 6631 cutoffs)
  avg switch length:       5.64
  switching time   :     543.30
Root Node          :
  First LP value   : +3.00000000000000e+00
  First LP Iters   :        367
  First LP Time    :       0.00
  Final Dual Bound : +7.09298499054205e-03
  Final Root Iters :       3541
Solution           :
  Solutions found  :          4 (3 improvements)
  First Solution   : +7.72820028999997e-04   (in run 1, after 1 nodes, 0.07 seconds, depth 0, found by <SpaGreedy>)
  Gap First Sol.   :   infinite
  Gap Last Sol.    :      68.82 %
  Primal Bound     : +8.52326916000367e-04   (in run 1, after 319130 nodes, 322.67 seconds, depth 17, found by <rins>)
  Dual Bound       : +1.19298860809278e-03
  Gap              :      39.97 %
  Avg. Gap         :      44.57 % (160461.28 primal-dual integral)
